p cnf 965 2478
51 -698 -1 0
-51 698 0
-51 1 0
52 -51 -699 0
-52 51 0
-52 699 0
53 -700 -698 0
-53 700 0
-53 698 0
54 -53 -5 0
-54 53 0
-54 5 0
55 -701 -702 0
-55 701 0
-55 702 0
56 -703 -6 0
-56 703 0
-56 6 0
57 -56 -8 0
-57 56 0
-57 8 0
58 -704 -55 0
-58 704 0
-58 55 0
59 -705 -9 0
-59 705 0
-59 9 0
60 -59 -11 0
-60 59 0
-60 11 0
61 -706 -58 0
-61 706 0
-61 58 0
62 -707 -708 0
-62 707 0
-62 708 0
63 -62 -709 0
-63 62 0
-63 709 0
64 -710 -61 0
-64 710 0
-64 61 0
65 -711 -10 0
-65 711 0
-65 10 0
66 -65 -15 0
-66 65 0
-66 15 0
67 -712 -64 0
-67 712 0
-67 64 0
68 -17 -713 0
-68 17 0
-68 713 0
69 -68 -18 0
-69 68 0
-69 18 0
70 -714 -67 0
-70 714 0
-70 67 0
71 -715 -716 0
-71 715 0
-71 716 0
72 -71 -717 0
-72 71 0
-72 717 0
73 -718 -70 0
-73 718 0
-73 70 0
74 -719 -16 0
-74 719 0
-74 16 0
75 -74 -17 0
-75 74 0
-75 17 0
76 -720 -73 0
-76 720 0
-76 73 0
77 -15 -10 0
-77 15 0
-77 10 0
78 -77 -21 0
-78 77 0
-78 21 0
79 -721 -76 0
-79 721 0
-79 76 0
80 -722 -723 0
-80 722 0
-80 723 0
81 -80 -724 0
-81 80 0
-81 724 0
82 -725 -79 0
-82 725 0
-82 79 0
83 -24 -2 0
-83 24 0
-83 2 0
84 -83 -23 0
-84 83 0
-84 23 0
85 -726 -82 0
-85 726 0
-85 82 0
86 -727 -13 0
-86 727 0
-86 13 0
87 -86 -717 0
-87 86 0
-87 717 0
88 -728 -85 0
-88 728 0
-88 85 0
89 -19 -716 0
-89 19 0
-89 716 0
90 -89 -26 0
-90 89 0
-90 26 0
91 -729 -88 0
-91 729 0
-91 88 0
92 -730 -703 0
-92 730 0
-92 703 0
93 -92 -27 0
-93 92 0
-93 27 0
94 -731 -91 0
-94 731 0
-94 91 0
95 -28 -25 0
-95 28 0
-95 25 0
96 -95 -7 0
-96 95 0
-96 7 0
97 -732 -94 0
-97 732 0
-97 94 0
98 -29 -703 0
-98 29 0
-98 703 0
99 -98 -733 0
-99 98 0
-99 733 0
100 -734 -97 0
-100 734 0
-100 97 0
101 -19 -711 0
-101 19 0
-101 711 0
102 -101 -10 0
-102 101 0
-102 10 0
103 -735 -100 0
-103 735 0
-103 100 0
104 -736 -737 0
-104 736 0
-104 737 0
105 -104 -738 0
-105 104 0
-105 738 0
106 -739 -103 0
-106 739 0
-106 103 0
107 -740 -32 0
-107 740 0
-107 32 0
108 -107 -2 0
-108 107 0
-108 2 0
109 -741 -106 0
-109 741 0
-109 106 0
110 -34 -28 0
-110 34 0
-110 28 0
111 -110 -730 0
-111 110 0
-111 730 0
112 -742 -109 0
-112 742 0
-112 109 0
113 -36 -35 0
-113 36 0
-113 35 0
114 -113 -12 0
-114 113 0
-114 12 0
115 -743 -112 0
-115 743 0
-115 112 0
116 -723 -5 0
-116 723 0
-116 5 0
117 -116 -11 0
-117 116 0
-117 11 0
118 -744 -115 0
-118 744 0
-118 115 0
119 -37 -698 0
-119 37 0
-119 698 0
120 -119 -38 0
-120 119 0
-120 38 0
121 -745 -118 0
-121 745 0
-121 118 0
122 -746 -5 0
-122 746 0
-122 5 0
123 -122 -717 0
-123 122 0
-123 717 0
124 -747 -121 0
-124 747 0
-124 121 0
125 -40 -20 0
-125 40 0
-125 20 0
126 -125 -724 0
-126 125 0
-126 724 0
127 -748 -124 0
-127 748 0
-127 124 0
128 -16 -703 0
-128 16 0
-128 703 0
129 -128 -699 0
-129 128 0
-129 699 0
130 -749 -127 0
-130 749 0
-130 127 0
131 -750 -18 0
-131 750 0
-131 18 0
132 -131 -751 0
-132 131 0
-132 751 0
133 -752 -130 0
-133 752 0
-133 130 0
134 -753 -736 0
-134 753 0
-134 736 0
135 -134 -11 0
-135 134 0
-135 11 0
136 -754 -133 0
-136 754 0
-136 133 0
137 -41 -37 0
-137 41 0
-137 37 0
138 -137 -27 0
-138 137 0
-138 27 0
139 -755 -136 0
-139 755 0
-139 136 0
140 -756 -10 0
-140 756 0
-140 10 0
141 -140 -709 0
-141 140 0
-141 709 0
142 -757 -139 0
-142 757 0
-142 139 0
143 -758 -759 0
-143 758 0
-143 759 0
144 -143 -33 0
-144 143 0
-144 33 0
145 -760 -142 0
-145 760 0
-145 142 0
146 -758 -722 0
-146 758 0
-146 722 0
147 -146 -761 0
-147 146 0
-147 761 0
148 -762 -145 0
-148 762 0
-148 145 0
149 -763 -42 0
-149 763 0
-149 42 0
150 -149 -699 0
-150 149 0
-150 699 0
151 -764 -148 0
-151 764 0
-151 148 0
152 -765 -716 0
-152 765 0
-152 716 0
153 -152 -31 0
-153 152 0
-153 31 0
154 -766 -151 0
-154 766 0
-154 151 0
155 -44 -733 0
-155 44 0
-155 733 0
156 -155 -767 0
-156 155 0
-156 767 0
157 -768 -154 0
-157 768 0
-157 154 0
158 -36 -4 0
-158 36 0
-158 4 0
159 -158 -12 0
-159 158 0
-159 12 0
160 -769 -157 0
-160 769 0
-160 157 0
161 -758 -14 0
-161 758 0
-161 14 0
162 -161 -18 0
-162 161 0
-162 18 0
163 -770 -160 0
-163 770 0
-163 160 0
164 -29 -14 0
-164 29 0
-164 14 0
165 -164 -45 0
-165 164 0
-165 45 0
166 -771 -163 0
-166 771 0
-166 163 0
167 -32 -736 0
-167 32 0
-167 736 0
168 -167 -761 0
-168 167 0
-168 761 0
169 -772 -166 0
-169 772 0
-169 166 0
170 -736 -708 0
-170 736 0
-170 708 0
171 -170 -738 0
-171 170 0
-171 738 0
172 -773 -169 0
-172 773 0
-172 169 0
173 -774 -761 0
-173 774 0
-173 761 0
174 -173 -23 0
-174 173 0
-174 23 0
175 -775 -172 0
-175 775 0
-175 172 0
176 -750 -1 0
-176 750 0
-176 1 0
177 -176 -21 0
-177 176 0
-177 21 0
178 -776 -175 0
-178 776 0
-178 175 0
179 -35 -698 0
-179 35 0
-179 698 0
180 -179 -15 0
-180 179 0
-180 15 0
181 -777 -178 0
-181 777 0
-181 178 0
182 -25 -7 0
-182 25 0
-182 7 0
183 -182 -8 0
-183 182 0
-183 8 0
184 -778 -181 0
-184 778 0
-184 181 0
185 -46 -18 0
-185 46 0
-185 18 0
186 -185 -33 0
-186 185 0
-186 33 0
187 -779 -184 0
-187 779 0
-187 184 0
188 -35 -736 0
-188 35 0
-188 736 0
189 -188 -733 0
-189 188 0
-189 733 0
190 -780 -187 0
-190 780 0
-190 187 0
191 -740 -756 0
-191 740 0
-191 756 0
192 -191 -11 0
-192 191 0
-192 11 0
193 -781 -190 0
-193 781 0
-193 190 0
194 -737 -28 0
-194 737 0
-194 28 0
195 -194 -717 0
-195 194 0
-195 717 0
196 -782 -193 0
-196 782 0
-196 193 0
197 -17 -16 0
-197 17 0
-197 16 0
198 -197 -699 0
-198 197 0
-198 699 0
199 -783 -196 0
-199 783 0
-199 196 0
200 -715 -713 0
-200 715 0
-200 713 0
201 -200 -10 0
-201 200 0
-201 10 0
202 -784 -199 0
-202 784 0
-202 199 0
203 -22 -13 0
-203 22 0
-203 13 0
204 -203 -761 0
-204 203 0
-204 761 0
205 -785 -202 0
-205 785 0
-205 202 0
206 -774 -35 0
-206 774 0
-206 35 0
207 -206 -724 0
-207 206 0
-207 724 0
208 -786 -205 0
-208 786 0
-208 205 0
209 -700 -1 0
-209 700 0
-209 1 0
210 -209 -740 0
-210 209 0
-210 740 0
211 -787 -208 0
-211 787 0
-211 208 0
212 -736 -12 0
-212 736 0
-212 12 0
213 -212 -761 0
-213 212 0
-213 761 0
214 -788 -211 0
-214 788 0
-214 211 0
215 -46 -19 0
-215 46 0
-215 19 0
216 -215 -763 0
-216 215 0
-216 763 0
217 -789 -214 0
-217 789 0
-217 214 0
218 -34 -4 0
-218 34 0
-218 4 0
219 -218 -790 0
-219 218 0
-219 790 0
220 -791 -217 0
-220 791 0
-220 217 0
221 -185 -12 0
-221 185 0
-221 12 0
222 -792 -220 0
-222 792 0
-222 220 0
223 -25 -716 0
-223 25 0
-223 716 0
224 -223 -717 0
-224 223 0
-224 717 0
225 -793 -222 0
-225 793 0
-225 222 0
226 -794 -761 0
-226 794 0
-226 761 0
227 -226 -27 0
-227 226 0
-227 27 0
228 -795 -225 0
-228 795 0
-228 225 0
229 -759 -4 0
-229 759 0
-229 4 0
230 -229 -796 0
-230 229 0
-230 796 0
231 -797 -228 0
-231 797 0
-231 228 0
232 -794 -719 0
-232 794 0
-232 719 0
233 -232 -7 0
-233 232 0
-233 7 0
234 -798 -231 0
-234 798 0
-234 231 0
235 -799 -28 0
-235 799 0
-235 28 0
236 -235 -737 0
-236 235 0
-236 737 0
237 -800 -234 0
-237 800 0
-237 234 0
238 -35 -801 0
-238 35 0
-238 801 0
239 -238 -47 0
-239 238 0
-239 47 0
240 -802 -237 0
-240 802 0
-240 237 0
241 -46 -715 0
-241 46 0
-241 715 0
242 -241 -10 0
-242 241 0
-242 10 0
243 -803 -240 0
-243 803 0
-243 240 0
244 -46 -801 0
-244 46 0
-244 801 0
245 -244 -5 0
-245 244 0
-245 5 0
246 -804 -243 0
-246 804 0
-246 243 0
247 -31 -738 0
-247 31 0
-247 738 0
248 -247 -27 0
-248 247 0
-248 27 0
249 -805 -246 0
-249 805 0
-249 246 0
250 -746 -727 0
-250 746 0
-250 727 0
251 -250 -703 0
-251 250 0
-251 703 0
252 -806 -249 0
-252 806 0
-252 249 0
253 -39 -26 0
-253 39 0
-253 26 0
254 -253 -722 0
-254 253 0
-254 722 0
255 -807 -252 0
-255 807 0
-255 252 0
256 -25 -715 0
-256 25 0
-256 715 0
257 -256 -8 0
-257 256 0
-257 8 0
258 -808 -255 0
-258 808 0
-258 255 0
259 -48 -715 0
-259 48 0
-259 715 0
260 -259 -7 0
-260 259 0
-260 7 0
261 -809 -258 0
-261 809 0
-261 258 0
262 -765 -711 0
-262 765 0
-262 711 0
263 -262 -3 0
-263 262 0
-263 3 0
264 -810 -261 0
-264 810 0
-264 261 0
265 -736 -26 0
-265 736 0
-265 26 0
266 -265 -699 0
-266 265 0
-266 699 0
267 -811 -264 0
-267 811 0
-267 264 0
268 -36 -703 0
-268 36 0
-268 703 0
269 -268 -43 0
-269 268 0
-269 43 0
270 -812 -267 0
-270 812 0
-270 267 0
271 -758 -703 0
-271 758 0
-271 703 0
272 -271 -723 0
-272 271 0
-272 723 0
273 -813 -270 0
-273 813 0
-273 270 0
274 -31 -2 0
-274 31 0
-274 2 0
275 -274 -49 0
-275 274 0
-275 49 0
276 -814 -273 0
-276 814 0
-276 273 0
277 -815 -753 0
-277 815 0
-277 753 0
278 -277 -756 0
-278 277 0
-278 756 0
279 -816 -276 0
-279 816 0
-279 276 0
280 -41 -16 0
-280 41 0
-280 16 0
281 -280 -3 0
-281 280 0
-281 3 0
282 -817 -279 0
-282 817 0
-282 279 0
283 -20 -17 0
-283 20 0
-283 17 0
284 -283 -31 0
-284 283 0
-284 31 0
285 -818 -282 0
-285 818 0
-285 282 0
286 -20 -711 0
-286 20 0
-286 711 0
287 -286 -819 0
-287 286 0
-287 819 0
288 -820 -285 0
-288 820 0
-288 285 0
289 -37 -14 0
-289 37 0
-289 14 0
290 -289 -40 0
-290 289 0
-290 40 0
291 -821 -288 0
-291 821 0
-291 288 0
292 -758 -5 0
-292 758 0
-292 5 0
293 -292 -717 0
-293 292 0
-293 717 0
294 -822 -291 0
-294 822 0
-294 291 0
295 -35 -823 0
-295 35 0
-295 823 0
296 -295 -27 0
-296 295 0
-296 27 0
297 -824 -294 0
-297 824 0
-297 294 0
298 -25 -708 0
-298 25 0
-298 708 0
299 -298 -717 0
-299 298 0
-299 717 0
300 -825 -297 0
-300 825 0
-300 297 0
301 -756 -801 0
-301 756 0
-301 801 0
302 -301 -705 0
-302 301 0
-302 705 0
303 -826 -300 0
-303 826 0
-303 300 0
304 -42 -715 0
-304 42 0
-304 715 0
305 -304 -18 0
-305 304 0
-305 18 0
306 -827 -303 0
-306 827 0
-306 303 0
307 -33 -7 0
-307 33 0
-307 7 0
308 -307 -49 0
-308 307 0
-308 49 0
309 -828 -306 0
-309 828 0
-309 306 0
310 -829 -14 0
-310 829 0
-310 14 0
311 -310 -2 0
-311 310 0
-311 2 0
312 -830 -309 0
-312 830 0
-312 309 0
313 -831 -9 0
-313 831 0
-313 9 0
314 -313 -819 0
-314 313 0
-314 819 0
315 -832 -312 0
-315 832 0
-315 312 0
316 -31 -22 0
-316 31 0
-316 22 0
317 -316 -763 0
-317 316 0
-317 763 0
318 -833 -315 0
-318 833 0
-318 315 0
319 -37 -715 0
-319 37 0
-319 715 0
320 -319 -15 0
-320 319 0
-320 15 0
321 -834 -318 0
-321 834 0
-321 318 0
322 -48 -835 0
-322 48 0
-322 835 0
323 -322 -723 0
-323 322 0
-323 723 0
324 -836 -321 0
-324 836 0
-324 321 0
325 -45 -737 0
-325 45 0
-325 737 0
326 -325 -40 0
-326 325 0
-326 40 0
327 -837 -324 0
-327 837 0
-327 324 0
328 -758 -9 0
-328 758 0
-328 9 0
329 -328 -7 0
-329 328 0
-329 7 0
330 -838 -327 0
-330 838 0
-330 327 0
331 -794 -715 0
-331 794 0
-331 715 0
332 -331 -26 0
-332 331 0
-332 26 0
333 -839 -330 0
-333 839 0
-333 330 0
334 -753 -723 0
-334 753 0
-334 723 0
335 -334 -763 0
-335 334 0
-335 763 0
336 -840 -333 0
-336 840 0
-336 333 0
337 -50 -765 0
-337 50 0
-337 765 0
338 -337 -49 0
-338 337 0
-338 49 0
339 -841 -336 0
-339 841 0
-339 336 0
340 -43 -724 0
-340 43 0
-340 724 0
341 -340 -819 0
-341 340 0
-341 819 0
342 -842 -339 0
-342 842 0
-342 339 0
343 -705 -708 0
-343 705 0
-343 708 0
344 -343 -23 0
-344 343 0
-344 23 0
345 -843 -342 0
-345 843 0
-345 342 0
346 -25 -844 0
-346 25 0
-346 844 0
347 -346 -3 0
-347 346 0
-347 3 0
348 -845 -345 0
-348 845 0
-348 345 0
349 -47 -4 0
-349 47 0
-349 4 0
350 -349 -846 0
-350 349 0
-350 846 0
351 -847 -348 0
-351 847 0
-351 348 0
352 -28 -738 0
-352 28 0
-352 738 0
353 -352 -846 0
-353 352 0
-353 846 0
354 -848 -351 0
-354 848 0
-354 351 0
355 -37 -736 0
-355 37 0
-355 736 0
356 -355 -49 0
-356 355 0
-356 49 0
357 -849 -354 0
-357 849 0
-357 354 0
358 -727 -719 0
-358 727 0
-358 719 0
359 -358 -44 0
-359 358 0
-359 44 0
360 -850 -357 0
-360 850 0
-360 357 0
361 -33 -707 0
-361 33 0
-361 707 0
362 -361 -699 0
-362 361 0
-362 699 0
363 -851 -360 0
-363 851 0
-363 360 0
364 -48 -29 0
-364 48 0
-364 29 0
365 -364 -698 0
-365 364 0
-365 698 0
366 -852 -363 0
-366 852 0
-366 363 0
367 -763 -8 0
-367 763 0
-367 8 0
368 -367 -3 0
-368 367 0
-368 3 0
369 -853 -366 0
-369 853 0
-369 366 0
370 -29 -20 0
-370 29 0
-370 20 0
371 -370 -47 0
-371 370 0
-371 47 0
372 -854 -369 0
-372 854 0
-372 369 0
373 -758 -823 0
-373 758 0
-373 823 0
374 -373 -44 0
-374 373 0
-374 44 0
375 -855 -372 0
-375 855 0
-375 372 0
376 -700 -796 0
-376 700 0
-376 796 0
377 -376 -3 0
-377 376 0
-377 3 0
378 -856 -375 0
-378 856 0
-378 375 0
379 -33 -27 0
-379 33 0
-379 27 0
380 -379 -38 0
-380 379 0
-380 38 0
381 -857 -378 0
-381 857 0
-381 378 0
382 -737 -18 0
-382 737 0
-382 18 0
383 -382 -40 0
-383 382 0
-383 40 0
384 -858 -381 0
-384 858 0
-384 381 0
385 -32 -5 0
-385 32 0
-385 5 0
386 -385 -23 0
-386 385 0
-386 23 0
387 -859 -384 0
-387 859 0
-387 384 0
388 -724 -738 0
-388 724 0
-388 738 0
389 -388 -27 0
-389 388 0
-389 27 0
390 -860 -387 0
-390 860 0
-390 387 0
391 -47 -28 0
-391 47 0
-391 28 0
392 -391 -740 0
-392 391 0
-392 740 0
393 -861 -390 0
-393 861 0
-393 390 0
394 -45 -39 0
-394 45 0
-394 39 0
395 -394 -23 0
-395 394 0
-395 23 0
396 -862 -393 0
-396 862 0
-396 393 0
397 -774 -801 0
-397 774 0
-397 801 0
398 -397 -707 0
-398 397 0
-398 707 0
399 -863 -396 0
-399 863 0
-399 396 0
400 -32 -14 0
-400 32 0
-400 14 0
401 -400 -799 0
-401 400 0
-401 799 0
402 -864 -399 0
-402 864 0
-402 399 0
403 -765 -759 0
-403 765 0
-403 759 0
404 -403 -15 0
-404 403 0
-404 15 0
405 -865 -402 0
-405 865 0
-405 402 0
406 -56 -722 0
-406 56 0
-406 722 0
407 -866 -405 0
-407 866 0
-407 405 0
408 -750 -30 0
-408 750 0
-408 30 0
409 -408 -19 0
-409 408 0
-409 19 0
410 -867 -407 0
-410 867 0
-410 407 0
411 -750 -16 0
-411 750 0
-411 16 0
412 -411 -46 0
-412 411 0
-412 46 0
413 -868 -410 0
-413 868 0
-413 410 0
414 -34 -703 0
-414 34 0
-414 703 0
415 -414 -796 0
-415 414 0
-415 796 0
416 -869 -413 0
-416 869 0
-416 413 0
417 -719 -1 0
-417 719 0
-417 1 0
418 -417 -738 0
-418 417 0
-418 738 0
419 -870 -416 0
-419 870 0
-419 416 0
420 -765 -7 0
-420 765 0
-420 7 0
421 -420 -717 0
-421 420 0
-421 717 0
422 -871 -419 0
-422 871 0
-422 419 0
423 -41 -35 0
-423 41 0
-423 35 0
424 -423 -49 0
-424 423 0
-424 49 0
425 -872 -422 0
-425 872 0
-425 422 0
426 -42 -25 0
-426 42 0
-426 25 0
427 -426 -17 0
-427 426 0
-427 17 0
428 -873 -425 0
-428 873 0
-428 425 0
429 -759 -32 0
-429 759 0
-429 32 0
430 -429 -26 0
-430 429 0
-430 26 0
431 -874 -428 0
-431 874 0
-431 428 0
432 -18 -713 0
-432 18 0
-432 713 0
433 -432 -49 0
-433 432 0
-433 49 0
434 -875 -431 0
-434 875 0
-434 431 0
435 -713 -716 0
-435 713 0
-435 716 0
436 -435 -831 0
-436 435 0
-436 831 0
437 -876 -434 0
-437 876 0
-437 434 0
438 -29 -844 0
-438 29 0
-438 844 0
439 -438 -796 0
-439 438 0
-439 796 0
440 -877 -437 0
-440 877 0
-440 437 0
441 -39 -759 0
-441 39 0
-441 759 0
442 -441 -17 0
-442 441 0
-442 17 0
443 -878 -440 0
-443 878 0
-443 440 0
444 -28 -711 0
-444 28 0
-444 711 0
445 -444 -707 0
-445 444 0
-445 707 0
446 -879 -443 0
-446 879 0
-446 443 0
447 -48 -39 0
-447 48 0
-447 39 0
448 -447 -24 0
-448 447 0
-448 24 0
449 -880 -446 0
-449 880 0
-449 446 0
450 -713 -700 0
-450 713 0
-450 700 0
451 -450 -7 0
-451 450 0
-451 7 0
452 -881 -449 0
-452 881 0
-452 449 0
453 -49 -36 0
-453 49 0
-453 36 0
454 -453 -738 0
-454 453 0
-454 738 0
455 -882 -452 0
-455 882 0
-455 452 0
456 -715 -5 0
-456 715 0
-456 5 0
457 -456 -21 0
-457 456 0
-457 21 0
458 -883 -455 0
-458 883 0
-458 455 0
459 -32 -801 0
-459 32 0
-459 801 0
460 -459 -763 0
-460 459 0
-460 763 0
461 -884 -458 0
-461 884 0
-461 458 0
462 -746 -713 0
-462 746 0
-462 713 0
463 -462 -736 0
-463 462 0
-463 736 0
464 -885 -461 0
-464 885 0
-464 461 0
465 -713 -6 0
-465 713 0
-465 6 0
466 -465 -40 0
-466 465 0
-466 40 0
467 -886 -464 0
-467 886 0
-467 464 0
468 -45 -715 0
-468 45 0
-468 715 0
469 -468 -21 0
-469 468 0
-469 21 0
470 -887 -467 0
-470 887 0
-470 467 0
471 -756 -16 0
-471 756 0
-471 16 0
472 -471 -796 0
-472 471 0
-472 796 0
473 -888 -470 0
-473 888 0
-473 470 0
474 -756 -25 0
-474 756 0
-474 25 0
475 -474 -2 0
-475 474 0
-475 2 0
476 -889 -473 0
-476 889 0
-476 473 0
477 -30 -3 0
-477 30 0
-477 3 0
478 -477 -38 0
-478 477 0
-478 38 0
479 -890 -476 0
-479 890 0
-479 476 0
480 -50 -829 0
-480 50 0
-480 829 0
481 -480 -3 0
-481 480 0
-481 3 0
482 -891 -479 0
-482 891 0
-482 479 0
483 -750 -32 0
-483 750 0
-483 32 0
484 -483 -723 0
-484 483 0
-484 723 0
485 -892 -482 0
-485 892 0
-485 482 0
486 -48 -737 0
-486 48 0
-486 737 0
487 -486 -36 0
-487 486 0
-487 36 0
488 -893 -485 0
-488 893 0
-488 485 0
489 -32 -26 0
-489 32 0
-489 26 0
490 -489 -709 0
-490 489 0
-490 709 0
491 -894 -488 0
-491 894 0
-491 488 0
492 -48 -801 0
-492 48 0
-492 801 0
493 -492 -22 0
-493 492 0
-493 22 0
494 -895 -491 0
-494 895 0
-494 491 0
495 -829 -707 0
-495 829 0
-495 707 0
496 -495 -763 0
-496 495 0
-496 763 0
497 -896 -494 0
-497 896 0
-497 494 0
498 -36 -844 0
-498 36 0
-498 844 0
499 -498 -33 0
-499 498 0
-499 33 0
500 -897 -497 0
-500 897 0
-500 497 0
501 -815 -709 0
-501 815 0
-501 709 0
502 -501 -724 0
-502 501 0
-502 724 0
503 -898 -500 0
-503 898 0
-503 500 0
504 -20 -796 0
-504 20 0
-504 796 0
505 -504 -31 0
-505 504 0
-505 31 0
506 -899 -503 0
-506 899 0
-506 503 0
507 -835 -5 0
-507 835 0
-507 5 0
508 -507 -3 0
-508 507 0
-508 3 0
509 -900 -506 0
-509 900 0
-509 506 0
510 -47 -711 0
-510 47 0
-510 711 0
511 -510 -733 0
-511 510 0
-511 733 0
512 -901 -509 0
-512 901 0
-512 509 0
513 -740 -722 0
-513 740 0
-513 722 0
514 -513 -819 0
-514 513 0
-514 819 0
515 -902 -512 0
-515 902 0
-515 512 0
516 -815 -25 0
-516 815 0
-516 25 0
517 -516 -2 0
-517 516 0
-517 2 0
518 -903 -515 0
-518 903 0
-518 515 0
519 -844 -751 0
-519 844 0
-519 751 0
520 -519 -761 0
-520 519 0
-520 761 0
521 -904 -518 0
-521 904 0
-521 518 0
522 -759 -12 0
-522 759 0
-522 12 0
523 -522 -49 0
-523 522 0
-523 49 0
524 -905 -521 0
-524 905 0
-524 521 0
525 -829 -4 0
-525 829 0
-525 4 0
526 -525 -707 0
-526 525 0
-526 707 0
527 -906 -524 0
-527 906 0
-527 524 0
528 -31 -700 0
-528 31 0
-528 700 0
529 -528 -733 0
-529 528 0
-529 733 0
530 -907 -527 0
-530 907 0
-530 527 0
531 -750 -6 0
-531 750 0
-531 6 0
532 -531 -835 0
-532 531 0
-532 835 0
533 -908 -530 0
-533 908 0
-533 530 0
534 -74 -27 0
-534 74 0
-534 27 0
535 -909 -533 0
-535 909 0
-535 533 0
536 -737 -846 0
-536 737 0
-536 846 0
537 -536 -11 0
-537 536 0
-537 11 0
538 -910 -535 0
-538 910 0
-538 535 0
539 -719 -4 0
-539 719 0
-539 4 0
540 -539 -36 0
-540 539 0
-540 36 0
541 -911 -538 0
-541 911 0
-541 538 0
542 -750 -737 0
-542 750 0
-542 737 0
543 -542 -41 0
-543 542 0
-543 41 0
544 -912 -541 0
-544 912 0
-544 541 0
545 -47 -24 0
-545 47 0
-545 24 0
546 -545 -709 0
-546 545 0
-546 709 0
547 -913 -544 0
-547 913 0
-547 544 0
548 -48 -45 0
-548 48 0
-548 45 0
549 -548 -705 0
-549 548 0
-549 705 0
550 -914 -547 0
-550 914 0
-550 547 0
551 -823 -844 0
-551 823 0
-551 844 0
552 -551 -790 0
-552 551 0
-552 790 0
553 -915 -550 0
-553 915 0
-553 550 0
554 -703 -751 0
-554 703 0
-554 751 0
555 -554 -38 0
-555 554 0
-555 38 0
556 -916 -553 0
-556 916 0
-556 553 0
557 -19 -16 0
-557 19 0
-557 16 0
558 -557 -38 0
-558 557 0
-558 38 0
559 -917 -556 0
-559 917 0
-559 556 0
560 -794 -32 0
-560 794 0
-560 32 0
561 -560 -13 0
-561 560 0
-561 13 0
562 -918 -559 0
-562 918 0
-562 559 0
563 -753 -705 0
-563 753 0
-563 705 0
564 -563 -831 0
-564 563 0
-564 831 0
565 -919 -562 0
-565 919 0
-565 562 0
566 -740 -823 0
-566 740 0
-566 823 0
567 -566 -724 0
-567 566 0
-567 724 0
568 -920 -565 0
-568 920 0
-568 565 0
569 -34 -796 0
-569 34 0
-569 796 0
570 -569 -13 0
-570 569 0
-570 13 0
571 -921 -568 0
-571 921 0
-571 568 0
572 -719 -801 0
-572 719 0
-572 801 0
573 -572 -699 0
-573 572 0
-573 699 0
574 -922 -571 0
-574 922 0
-574 571 0
575 -29 -700 0
-575 29 0
-575 700 0
576 -575 -35 0
-576 575 0
-576 35 0
577 -923 -574 0
-577 923 0
-577 574 0
578 -765 -924 0
-578 765 0
-578 924 0
579 -578 -1 0
-579 578 0
-579 1 0
580 -925 -577 0
-580 925 0
-580 577 0
581 -432 -708 0
-581 432 0
-581 708 0
582 -926 -580 0
-582 926 0
-582 580 0
583 -790 -774 0
-583 790 0
-583 774 0
584 -583 -796 0
-584 583 0
-584 796 0
585 -927 -582 0
-585 927 0
-585 582 0
586 -34 -5 0
-586 34 0
-586 5 0
587 -586 -717 0
-587 586 0
-587 717 0
588 -928 -585 0
-588 928 0
-588 585 0
589 -815 -790 0
-589 815 0
-589 790 0
590 -589 -40 0
-590 589 0
-590 40 0
591 -929 -588 0
-591 929 0
-591 588 0
592 -753 -711 0
-592 753 0
-592 711 0
593 -592 -24 0
-593 592 0
-593 24 0
594 -930 -591 0
-594 930 0
-594 591 0
595 -17 -711 0
-595 17 0
-595 711 0
596 -595 -765 0
-596 595 0
-596 765 0
597 -931 -594 0
-597 931 0
-597 594 0
598 -763 -1 0
-598 763 0
-598 1 0
599 -598 -23 0
-599 598 0
-599 23 0
600 -932 -597 0
-600 932 0
-600 597 0
601 -831 -736 0
-601 831 0
-601 736 0
602 -601 -11 0
-602 601 0
-602 11 0
603 -933 -600 0
-603 933 0
-603 600 0
604 -44 -12 0
-604 44 0
-604 12 0
605 -604 -819 0
-605 604 0
-605 819 0
606 -934 -603 0
-606 934 0
-606 603 0
607 -48 -823 0
-607 48 0
-607 823 0
608 -607 -7 0
-608 607 0
-608 7 0
609 -935 -606 0
-609 935 0
-609 606 0
610 -733 -796 0
-610 733 0
-610 796 0
611 -610 -767 0
-611 610 0
-611 767 0
612 -936 -609 0
-612 936 0
-612 609 0
613 -9 -703 0
-613 9 0
-613 703 0
614 -613 -751 0
-614 613 0
-614 751 0
615 -937 -612 0
-615 937 0
-615 612 0
616 -36 -759 0
-616 36 0
-616 759 0
617 -616 -22 0
-617 616 0
-617 22 0
618 -938 -615 0
-618 938 0
-618 615 0
619 -47 -774 0
-619 47 0
-619 774 0
620 -619 -22 0
-620 619 0
-620 22 0
621 -939 -618 0
-621 939 0
-621 618 0
622 -298 -831 0
-622 298 0
-622 831 0
623 -940 -621 0
-623 940 0
-623 621 0
624 -44 -759 0
-624 44 0
-624 759 0
625 -624 -761 0
-625 624 0
-625 761 0
626 -941 -623 0
-626 941 0
-626 623 0
627 -758 -34 0
-627 758 0
-627 34 0
628 -627 -799 0
-628 627 0
-628 799 0
629 -942 -626 0
-629 942 0
-629 626 0
630 -831 -47 0
-630 831 0
-630 47 0
631 -630 -40 0
-631 630 0
-631 40 0
632 -943 -629 0
-632 943 0
-632 629 0
633 -46 -733 0
-633 46 0
-633 733 0
634 -633 -21 0
-634 633 0
-634 21 0
635 -944 -632 0
-635 944 0
-635 632 0
636 -42 -711 0
-636 42 0
-636 711 0
637 -636 -45 0
-637 636 0
-637 45 0
638 -945 -635 0
-638 945 0
-638 635 0
639 -46 -9 0
-639 46 0
-639 9 0
640 -639 -45 0
-640 639 0
-640 45 0
641 -946 -638 0
-641 946 0
-641 638 0
642 -758 -13 0
-642 758 0
-642 13 0
643 -642 -831 0
-643 642 0
-643 831 0
644 -947 -641 0
-644 947 0
-644 641 0
645 -50 -711 0
-645 50 0
-645 711 0
646 -645 -39 0
-646 645 0
-646 39 0
647 -948 -644 0
-647 948 0
-647 644 0
648 -44 -700 0
-648 44 0
-648 700 0
649 -648 -796 0
-649 648 0
-649 796 0
650 -949 -647 0
-650 949 0
-650 647 0
651 -47 -799 0
-651 47 0
-651 799 0
652 -651 -763 0
-652 651 0
-652 763 0
653 -950 -650 0
-653 950 0
-653 650 0
654 -835 -20 0
-654 835 0
-654 20 0
655 -654 -724 0
-655 654 0
-655 724 0
656 -951 -653 0
-656 951 0
-656 653 0
657 -727 -707 0
-657 727 0
-657 707 0
658 -657 -819 0
-658 657 0
-658 819 0
659 -952 -656 0
-659 952 0
-659 656 0
660 -17 -716 0
-660 17 0
-660 716 0
661 -660 -737 0
-661 660 0
-661 737 0
662 -953 -659 0
-662 953 0
-662 659 0
663 -50 -703 0
-663 50 0
-663 703 0
664 -663 -738 0
-664 663 0
-664 738 0
665 -954 -662 0
-665 954 0
-665 662 0
666 -829 -26 0
-666 829 0
-666 26 0
667 -666 -796 0
-667 666 0
-667 796 0
668 -955 -665 0
-668 955 0
-668 665 0
669 -47 -17 0
-669 47 0
-669 17 0
670 -669 -756 0
-670 669 0
-670 756 0
671 -956 -668 0
-671 956 0
-671 668 0
672 -292 -724 0
-672 292 0
-672 724 0
673 -957 -671 0
-673 957 0
-673 671 0
674 -49 -698 0
-674 49 0
-674 698 0
675 -674 -717 0
-675 674 0
-675 717 0
676 -958 -673 0
-676 958 0
-676 673 0
677 -47 -44 0
-677 47 0
-677 44 0
678 -677 -715 0
-678 677 0
-678 715 0
679 -959 -676 0
-679 959 0
-679 676 0
680 -25 -713 0
-680 25 0
-680 713 0
681 -680 -761 0
-681 680 0
-681 761 0
682 -960 -679 0
-682 960 0
-682 679 0
683 -45 -740 0
-683 45 0
-683 740 0
684 -683 -819 0
-684 683 0
-684 819 0
685 -961 -682 0
-685 961 0
-685 682 0
686 -32 -17 0
-686 32 0
-686 17 0
687 -686 -33 0
-687 686 0
-687 33 0
688 -962 -685 0
-688 962 0
-688 685 0
689 -705 -8 0
-689 705 0
-689 8 0
690 -689 -49 0
-690 689 0
-690 49 0
691 -963 -688 0
-691 963 0
-691 688 0
692 -6 -1 0
-692 6 0
-692 1 0
693 -692 -38 0
-693 692 0
-693 38 0
694 -964 -691 0
-694 964 0
-694 691 0
695 -50 -26 0
-695 50 0
-695 26 0
696 -695 -27 0
-696 695 0
-696 27 0
697 -965 -694 0
-697 965 0
-697 694 0
-698 -2 0
698 2 0
-699 -3 0
699 3 0
-700 -4 0
700 4 0
-701 -54 0
701 54 0
-702 -52 0
702 52 0
-703 -7 0
703 7 0
-704 -57 0
704 57 0
-705 -10 0
705 10 0
-706 -60 0
706 60 0
-707 -12 0
707 12 0
-708 -8 0
708 8 0
-709 -13 0
709 13 0
-710 -63 0
710 63 0
-711 -14 0
711 14 0
-712 -66 0
712 66 0
-713 -16 0
713 16 0
-714 -69 0
714 69 0
-715 -19 0
715 19 0
-716 -9 0
716 9 0
-717 -11 0
717 11 0
-718 -72 0
718 72 0
-719 -20 0
719 20 0
-720 -75 0
720 75 0
-721 -78 0
721 78 0
-722 -22 0
722 22 0
-723 -18 0
723 18 0
-724 -23 0
724 23 0
-725 -81 0
725 81 0
-726 -84 0
726 84 0
-727 -25 0
727 25 0
-728 -87 0
728 87 0
-729 -90 0
729 90 0
-730 -17 0
730 17 0
-731 -93 0
731 93 0
-732 -96 0
732 96 0
-733 -15 0
733 15 0
-734 -99 0
734 99 0
-735 -102 0
735 102 0
-736 -31 0
736 31 0
-737 -30 0
737 30 0
-738 -21 0
738 21 0
-739 -105 0
739 105 0
-740 -33 0
740 33 0
-741 -108 0
741 108 0
-742 -111 0
742 111 0
-743 -114 0
743 114 0
-744 -117 0
744 117 0
-745 -120 0
745 120 0
-746 -39 0
746 39 0
-747 -123 0
747 123 0
-748 -126 0
748 126 0
-749 -129 0
749 129 0
-750 -37 0
750 37 0
-751 -5 0
751 5 0
-752 -132 0
752 132 0
-753 -35 0
753 35 0
-754 -135 0
754 135 0
-755 -138 0
755 138 0
-756 -26 0
756 26 0
-757 -141 0
757 141 0
-758 -42 0
758 42 0
-759 -34 0
759 34 0
-760 -144 0
760 144 0
-761 -41 0
761 41 0
-762 -147 0
762 147 0
-763 -43 0
763 43 0
-764 -150 0
764 150 0
-765 -36 0
765 36 0
-766 -153 0
766 153 0
-767 -40 0
767 40 0
-768 -156 0
768 156 0
-769 -159 0
769 159 0
-770 -162 0
770 162 0
-771 -165 0
771 165 0
-772 -168 0
772 168 0
-773 -171 0
773 171 0
-774 -44 0
774 44 0
-775 -174 0
775 174 0
-776 -177 0
776 177 0
-777 -180 0
777 180 0
-778 -183 0
778 183 0
-779 -186 0
779 186 0
-780 -189 0
780 189 0
-781 -192 0
781 192 0
-782 -195 0
782 195 0
-783 -198 0
783 198 0
-784 -201 0
784 201 0
-785 -204 0
785 204 0
-786 -207 0
786 207 0
-787 -210 0
787 210 0
-788 -213 0
788 213 0
-789 -216 0
789 216 0
-790 -47 0
790 47 0
-791 -219 0
791 219 0
-792 -221 0
792 221 0
-793 -224 0
793 224 0
-794 -48 0
794 48 0
-795 -227 0
795 227 0
-796 -1 0
796 1 0
-797 -230 0
797 230 0
-798 -233 0
798 233 0
-799 -46 0
799 46 0
-800 -236 0
800 236 0
-801 -6 0
801 6 0
-802 -239 0
802 239 0
-803 -242 0
803 242 0
-804 -245 0
804 245 0
-805 -248 0
805 248 0
-806 -251 0
806 251 0
-807 -254 0
807 254 0
-808 -257 0
808 257 0
-809 -260 0
809 260 0
-810 -263 0
810 263 0
-811 -266 0
811 266 0
-812 -269 0
812 269 0
-813 -272 0
813 272 0
-814 -275 0
814 275 0
-815 -50 0
815 50 0
-816 -278 0
816 278 0
-817 -281 0
817 281 0
-818 -284 0
818 284 0
-819 -38 0
819 38 0
-820 -287 0
820 287 0
-821 -290 0
821 290 0
-822 -293 0
822 293 0
-823 -29 0
823 29 0
-824 -296 0
824 296 0
-825 -299 0
825 299 0
-826 -302 0
826 302 0
-827 -305 0
827 305 0
-828 -308 0
828 308 0
-829 -28 0
829 28 0
-830 -311 0
830 311 0
-831 -49 0
831 49 0
-832 -314 0
832 314 0
-833 -317 0
833 317 0
-834 -320 0
834 320 0
-835 -45 0
835 45 0
-836 -323 0
836 323 0
-837 -326 0
837 326 0
-838 -329 0
838 329 0
-839 -332 0
839 332 0
-840 -335 0
840 335 0
-841 -338 0
841 338 0
-842 -341 0
842 341 0
-843 -344 0
843 344 0
-844 -24 0
844 24 0
-845 -347 0
845 347 0
-846 -27 0
846 27 0
-847 -350 0
847 350 0
-848 -353 0
848 353 0
-849 -356 0
849 356 0
-850 -359 0
850 359 0
-851 -362 0
851 362 0
-852 -365 0
852 365 0
-853 -368 0
853 368 0
-854 -371 0
854 371 0
-855 -374 0
855 374 0
-856 -377 0
856 377 0
-857 -380 0
857 380 0
-858 -383 0
858 383 0
-859 -386 0
859 386 0
-860 -389 0
860 389 0
-861 -392 0
861 392 0
-862 -395 0
862 395 0
-863 -398 0
863 398 0
-864 -401 0
864 401 0
-865 -404 0
865 404 0
-866 -406 0
866 406 0
-867 -409 0
867 409 0
-868 -412 0
868 412 0
-869 -415 0
869 415 0
-870 -418 0
870 418 0
-871 -421 0
871 421 0
-872 -424 0
872 424 0
-873 -427 0
873 427 0
-874 -430 0
874 430 0
-875 -433 0
875 433 0
-876 -436 0
876 436 0
-877 -439 0
877 439 0
-878 -442 0
878 442 0
-879 -445 0
879 445 0
-880 -448 0
880 448 0
-881 -451 0
881 451 0
-882 -454 0
882 454 0
-883 -457 0
883 457 0
-884 -460 0
884 460 0
-885 -463 0
885 463 0
-886 -466 0
886 466 0
-887 -469 0
887 469 0
-888 -472 0
888 472 0
-889 -475 0
889 475 0
-890 -478 0
890 478 0
-891 -481 0
891 481 0
-892 -484 0
892 484 0
-893 -487 0
893 487 0
-894 -490 0
894 490 0
-895 -493 0
895 493 0
-896 -496 0
896 496 0
-897 -499 0
897 499 0
-898 -502 0
898 502 0
-899 -505 0
899 505 0
-900 -508 0
900 508 0
-901 -511 0
901 511 0
-902 -514 0
902 514 0
-903 -517 0
903 517 0
-904 -520 0
904 520 0
-905 -523 0
905 523 0
-906 -526 0
906 526 0
-907 -529 0
907 529 0
-908 -532 0
908 532 0
-909 -534 0
909 534 0
-910 -537 0
910 537 0
-911 -540 0
911 540 0
-912 -543 0
912 543 0
-913 -546 0
913 546 0
-914 -549 0
914 549 0
-915 -552 0
915 552 0
-916 -555 0
916 555 0
-917 -558 0
917 558 0
-918 -561 0
918 561 0
-919 -564 0
919 564 0
-920 -567 0
920 567 0
-921 -570 0
921 570 0
-922 -573 0
922 573 0
-923 -576 0
923 576 0
-924 -32 0
924 32 0
-925 -579 0
925 579 0
-926 -581 0
926 581 0
-927 -584 0
927 584 0
-928 -587 0
928 587 0
-929 -590 0
929 590 0
-930 -593 0
930 593 0
-931 -596 0
931 596 0
-932 -599 0
932 599 0
-933 -602 0
933 602 0
-934 -605 0
934 605 0
-935 -608 0
935 608 0
-936 -611 0
936 611 0
-937 -614 0
937 614 0
-938 -617 0
938 617 0
-939 -620 0
939 620 0
-940 -622 0
940 622 0
-941 -625 0
941 625 0
-942 -628 0
942 628 0
-943 -631 0
943 631 0
-944 -634 0
944 634 0
-945 -637 0
945 637 0
-946 -640 0
946 640 0
-947 -643 0
947 643 0
-948 -646 0
948 646 0
-949 -649 0
949 649 0
-950 -652 0
950 652 0
-951 -655 0
951 655 0
-952 -658 0
952 658 0
-953 -661 0
953 661 0
-954 -664 0
954 664 0
-955 -667 0
955 667 0
-956 -670 0
956 670 0
-957 -672 0
957 672 0
-958 -675 0
958 675 0
-959 -678 0
959 678 0
-960 -681 0
960 681 0
-961 -684 0
961 684 0
-962 -687 0
962 687 0
-963 -690 0
963 690 0
-964 -693 0
964 693 0
-965 -696 0
965 696 0
697 0
